
Gurobi 9.5.1 (linux64) logging started Tue 16 Aug 2022 07:58:55 PM MST

Set parameter LogFile to value "/home/local/ASUAD/kmajd1/NNRepLayer_v2/demos/walking_example/dynamic_constraint/repair_net/logs/opt_log_multi_17.log"
Gurobi Optimizer version 9.5.1 build v9.5.1rc2 (linux64)
Thread count: 48 physical cores, 96 logical processors, using up to 48 threads
Optimize a model with 15477 rows, 9832 columns and 134549 nonzeros
Model fingerprint: 0x445e6573
Model has 135 quadratic objective terms
Variable types: 5512 continuous, 4320 integer (4320 binary)
Coefficient statistics:
  Matrix range     [3e-03, 5e+01]
  Objective range  [3e-02, 3e+00]
  QObjective range [1e-01, 1e-01]
  Bounds range     [2e-03, 2e+02]
  RHS range        [4e-04, 5e+01]

Concurrent MIP optimizer: 3 concurrent instances (16 threads per instance)

Presolve removed 398 rows and 64 columns
Presolve time: 0.23s
Presolved: 15079 rows, 9768 columns, 134023 nonzeros
Presolved model has 135 quadratic objective terms
Variable types: 5448 continuous, 4320 integer (4320 binary)
Root relaxation presolve removed 4320 rows and 4320 columns
Root relaxation presolved: 10759 rows, 5448 columns, 121063 nonzeros
Root relaxation presolved model has 135 quadratic objective terms


Root relaxation: objective 2.429716e+01, 7209 iterations, 0.48 seconds (0.90 work units)

    Nodes    |    Current Node    |     Objective Bounds      |     Work
 Expl Unexpl |  Obj  Depth IntInf | Incumbent    BestBd   Gap | It/Node Time

     0     0      -    -    -              -   24.29716      -     -    0s
     0     0      -    -    -              -   24.29716      -     -    3s
     0     2      -    -    -              -   24.29716      -     -    9s
     7    16      -    -    -              -   24.29716      -     -   10s
  2011  2108      -    -    -              -   24.29716      -     -   15s
  4486  4677      -    -    -              -   24.29716      -     -   20s
  7389  7636      -    -    -              -   24.29716      -     -   25s
  9896 10075      -    -    -              -   24.29716      -     -   30s
 10294 10294      -    -    -              -   24.29716      -     -   35s
 10296 10296      -    -    -       59.57974   24.29716  59.2%     -   55s
 10299  9299      -    -    -       59.15793   24.29716  58.9%     -   73s
 10391  8465      -    -    -       46.56647   24.29716  47.8%     -  103s
 10786  8764      -    -    -       46.56647   24.29716  47.8%     -  105s
 11480  9192      -    -    -       46.23427   24.29716  47.4%     -  110s
 14506 11397      -    -    -       46.23427   24.29716  47.4%     -  115s
 16312 12618      -    -    -       46.23427   24.29716  47.4%     -  120s
 17440 13364      -    -    -       46.23427   24.29716  47.4%     -  125s
 17674 13511      -    -    -       45.66810   24.29716  46.8%     -  153s
 17899 13216      -    -    -       45.66810   24.29716  46.8%     -  166s
 19234 14178      -    -    -       45.66810   24.29716  46.8%     -  170s
 19515 14209      -    -    -       45.66810   24.29716  46.8%     -  184s
 19639 14458      -    -    -       45.66810   24.29716  46.8%     -  186s
 20235 14872      -    -    -       45.66810   24.29716  46.8%     -  194s
 20550 15579      -    -    -       45.66810   24.29716  46.8%     -  200s
 21362 14926      -    -    -       40.21959   24.29716  39.6%     -  286s
 21378 14080      -    -    -       40.21959   24.29716  39.6%     -  300s
 21617 14949      -    -    -       40.21959   24.29716  39.6%     -  306s
 22566 14911      -    -    -       40.21959   24.29716  39.6%     -  311s
 22846 15598      -    -    -       40.21959   24.29716  39.6%     -  316s
 23627 15352      -    -    -       40.21959   24.29716  39.6%     -  370s
 23643 15920      -    -    -       40.21959   24.29716  39.6%     -  376s
 24250 16121      -    -    -       40.21959   24.29716  39.6%     -  383s
 24684 16120      -    -    -       40.21959   24.29716  39.6%     -  395s
 24827 16435      -    -    -       40.21959   24.29716  39.6%     -  400s
 25190 16637      -    -    -       40.21959   24.29716  39.6%     -  408s
 25513 17028      -    -    -       40.21959   24.29716  39.6%     -  421s
 26026 17363      -    -    -       40.21959   24.29716  39.6%     -  443s
 26582 17637      -    -    -       40.21959   24.29716  39.6%     -  464s
 27055 17804      -    -    -       38.78855   24.29716  37.4%     -  490s
 27382 18485      -    -    -       38.78855   24.29716  37.4%     -  501s

Resetting heuristic parameters to focus on improving solution
(using Heuristics=0.5 and RINS=10)...

 28182 17911      -    -    -       38.78855   24.29716  37.4%     -  536s
 28198 17755      -    -    -       36.97475   24.29716  34.3%     -  600s

Instance 2 was solved

Explored 34883 nodes (16500802 simplex iterations) in 600.40 seconds (1173.70 work units)
Thread count was 16 (of 96 available processors)

Solution count 10: 36.9747 37.6458 37.8536 ... 38.7257 

Time limit reached
Best objective 3.697474724817e+01, best bound 2.429716467676e+01, gap 34.2871%
